NAME : R2_2_1
TYPE : VRPSPD
DIMENSION : 201
VEHICLES : 5
CAPACITY : 1000
DISTANCE : 999999
SCALE : 1000
EDGE_WEIGHT_TYPE : EXACT_2D
NODE_COORD_SECTION
1 70 70
2 101 0
3 26 50
4 30 57
5 29 60
6 69 116
7 137 137
8 103 119
9 78 111
10 107 25
11 17 138
12 37 138
13 20 69
14 121 123
15 22 104
16 137 7
17 50 106
18 46 112
19 79 72
20 104 32
21 8 87
22 109 139
23 80 103
24 78 63
25 95 135
26 37 79
27 64 132
28 133 130
29 39 13
30 120 14
31 10 86
32 140 42
33 121 124
34 42 29
35 44 58
36 32 6
37 41 36
38 106 10
39 107 102
40 83 38
41 132 133
42 81 57
43 120 52
44 113 32
45 137 101
46 82 103
47 10 111
48 90 44
49 139 73
50 89 24
51 64 138
52 98 4
53 61 34
54 60 84
55 13 48
56 84 88
57 86 40
58 69 115
59 59 115
60 105 2
61 107 77
62 104 54
63 54 33
64 32 52
65 37 125
66 99 34
67 38 122
68 85 75
69 109 131
70 103 77
71 47 83
72 139 68
73 88 29
74 39 100
75 48 47
76 104 73
77 9 19
78 103 44
79 73 96
80 44 116
81 71 70
82 83 12
83 36 54
84 16 92
85 56 139
86 27 104
87 67 96
88 34 72
89 120 22
90 54 106
91 63 129
92 33 117
93 102 52
94 13 129
95 34 20
96 114 109
97 86 80
98 33 0
99 18 104
100 70 83
101 12 48
102 139 72
103 109 78
104 116 22
105 27 46
106 19 120
107 23 39
108 110 99
109 15 18
110 18 70
111 16 62
112 61 57
113 123 84
114 37 73
115 115 124
116 93 61
117 89 39
118 65 0
119 108 30
120 120 60
121 92 22
122 2 106
123 117 92
124 26 130
125 85 111
126 113 45
127 40 113
128 138 105
129 116 105
130 110 28
131 12 138
132 66 40
133 140 36
134 50 112
135 23 19
136 4 71
137 92 138
138 69 6
139 100 99
140 116 13
141 112 13
142 49 140
143 36 124
144 120 47
145 60 54
146 115 82
147 139 110
148 126 23
149 58 80
150 30 21
151 64 115
152 82 100
153 113 35
154 35 90
155 58 95
156 117 4
157 97 115
158 56 129
159 54 41
160 136 123
161 129 24
162 46 133
163 58 11
164 54 78
165 65 80
166 28 62
167 55 127
168 137 84
169 79 80
170 51 92
171 12 84
172 66 82
173 97 12
174 67 120
175 55 102
176 90 14
177 20 106
178 15 4
179 138 78
180 60 23
181 29 94
182 70 94
183 4 44
184 66 91
185 119 73
186 135 65
187 103 82
188 104 139
189 15 9
190 5 99
191 36 38
192 125 68
193 44 36
194 137 127
195 120 102
196 138 24
197 103 86
198 137 96
199 8 138
200 81 36
201 116 83
PICKUP_AND_DELIVERY_SECTION
1 0 0 10000000 0 0 0
2 0 0 10000000 0 24 9
3 0 0 10000000 0 33 7
4 0 0 10000000 0 35 20
5 0 0 10000000 0 30 14
6 0 0 10000000 0 4 26
7 0 0 10000000 0 11 27
8 0 0 10000000 0 36 18
9 0 0 10000000 0 22 22
10 0 0 10000000 0 18 13
11 0 0 10000000 0 13 8
12 0 0 10000000 0 12 5
13 0 0 10000000 0 32 13
14 0 0 10000000 0 22 9
15 0 0 10000000 0 22 11
16 0 0 10000000 0 34 40
17 0 0 10000000 0 38 25
18 0 0 10000000 0 34 10
19 0 0 10000000 0 19 22
20 0 0 10000000 0 40 18
21 0 0 10000000 0 29 17
22 0 0 10000000 0 6 8
23 0 0 10000000 0 20 15
24 0 0 10000000 0 34 19
25 0 0 10000000 0 12 27
26 0 0 10000000 0 38 5
27 0 0 10000000 0 1 8
28 0 0 10000000 0 14 13
29 0 0 10000000 0 27 20
30 0 0 10000000 0 13 20
31 0 0 10000000 0 21 14
32 0 0 10000000 0 5 13
33 0 0 10000000 0 8 21
34 0 0 10000000 0 14 12
35 0 0 10000000 0 29 30
36 0 0 10000000 0 16 11
37 0 0 10000000 0 20 13
38 0 0 10000000 0 15 13
39 0 0 10000000 0 43 12
40 0 0 10000000 0 10 22
41 0 0 10000000 0 12 24
42 0 0 10000000 0 6 8
43 0 0 10000000 0 32 20
44 0 0 10000000 0 25 36
45 0 0 10000000 0 23 12
46 0 0 10000000 0 33 15
47 0 0 10000000 0 1 21
48 0 0 10000000 0 2 6
49 0 0 10000000 0 33 10
50 0 0 10000000 0 20 15
51 0 0 10000000 0 10 15
52 0 0 10000000 0 35 20
53 0 0 10000000 0 5 7
54 0 0 10000000 0 9 23
55 0 0 10000000 0 4 15
56 0 0 10000000 0 22 16
57 0 0 10000000 0 11 22
58 0 0 10000000 0 11 20
59 0 0 10000000 0 35 26
60 0 0 10000000 0 9 1
61 0 0 10000000 0 14 34
62 0 0 10000000 0 7 13
63 0 0 10000000 0 35 20
64 0 0 10000000 0 19 32
65 0 0 10000000 0 12 10
66 0 0 10000000 0 27 9
67 0 0 10000000 0 37 13
68 0 0 10000000 0 24 37
69 0 0 10000000 0 30 16
70 0 0 10000000 0 24 17
71 0 0 10000000 0 36 1
72 0 0 10000000 0 38 25
73 0 0 10000000 0 17 33
74 0 0 10000000 0 4 31
75 0 0 10000000 0 23 19
76 0 0 10000000 0 35 17
77 0 0 10000000 0 8 10
78 0 0 10000000 0 8 12
79 0 0 10000000 0 32 9
80 0 0 10000000 0 18 27
81 0 0 10000000 0 29 9
82 0 0 10000000 0 26 29
83 0 0 10000000 0 3 15
84 0 0 10000000 0 7 10
85 0 0 10000000 0 37 18
86 0 0 10000000 0 35 1
87 0 0 10000000 0 43 26
88 0 0 10000000 0 9 21
89 0 0 10000000 0 41 39
90 0 0 10000000 0 19 9
91 0 0 10000000 0 42 7
92 0 0 10000000 0 5 20
93 0 0 10000000 0 1 15
94 0 0 10000000 0 10 25
95 0 0 10000000 0 42 15
96 0 0 10000000 0 43 16
97 0 0 10000000 0 25 21
98 0 0 10000000 0 33 20
99 0 0 10000000 0 13 18
100 0 0 10000000 0 9 23
101 0 0 10000000 0 4 4
102 0 0 10000000 0 4 23
103 0 0 10000000 0 1 21
104 0 0 10000000 0 28 32
105 0 0 10000000 0 27 35
106 0 0 10000000 0 11 16
107 0 0 10000000 0 2 20
108 0 0 10000000 0 32 21
109 0 0 10000000 0 38 10
110 0 0 10000000 0 21 26
111 0 0 10000000 0 30 15
112 0 0 10000000 0 37 35
113 0 0 10000000 0 35 13
114 0 0 10000000 0 10 33
115 0 0 10000000 0 26 11
116 0 0 10000000 0 42 10
117 0 0 10000000 0 17 23
118 0 0 10000000 0 19 20
119 0 0 10000000 0 39 18
120 0 0 10000000 0 14 18
121 0 0 10000000 0 40 18
122 0 0 10000000 0 37 16
123 0 0 10000000 0 12 25
124 0 0 10000000 0 32 20
125 0 0 10000000 0 18 25
126 0 0 10000000 0 7 4
127 0 0 10000000 0 10 23
128 0 0 10000000 0 43 24
129 0 0 10000000 0 33 23
130 0 0 10000000 0 2 20
131 0 0 10000000 0 33 14
132 0 0 10000000 0 3 20
133 0 0 10000000 0 21 1
134 0 0 10000000 0 1 18
135 0 0 10000000 0 10 16
136 0 0 10000000 0 43 19
137 0 0 10000000 0 31 12
138 0 0 10000000 0 4 8
139 0 0 10000000 0 39 17
140 0 0 10000000 0 19 5
141 0 0 10000000 0 17 27
142 0 0 10000000 0 26 3
143 0 0 10000000 0 38 34
144 0 0 10000000 0 19 18
145 0 0 10000000 0 36 3
146 0 0 10000000 0 16 30
147 0 0 10000000 0 9 19
148 0 0 10000000 0 6 13
149 0 0 10000000 0 17 18
150 0 0 10000000 0 12 12
151 0 0 10000000 0 2 15
152 0 0 10000000 0 36 18
153 0 0 10000000 0 25 9
154 0 0 10000000 0 21 20
155 0 0 10000000 0 31 35
156 0 0 10000000 0 2 9
157 0 0 10000000 0 41 25
158 0 0 10000000 0 29 21
159 0 0 10000000 0 39 9
160 0 0 10000000 0 36 31
161 0 0 10000000 0 40 18
162 0 0 10000000 0 29 7
163 0 0 10000000 0 35 9
164 0 0 10000000 0 27 11
165 0 0 10000000 0 37 20
166 0 0 10000000 0 5 23
167 0 0 10000000 0 32 17
168 0 0 10000000 0 43 41
169 0 0 10000000 0 12 4
170 0 0 10000000 0 22 9
171 0 0 10000000 0 2 16
172 0 0 10000000 0 15 27
173 0 0 10000000 0 9 10
174 0 0 10000000 0 30 5
175 0 0 10000000 0 17 4
176 0 0 10000000 0 12 31
177 0 0 10000000 0 33 24
178 0 0 10000000 0 40 23
179 0 0 10000000 0 2 43
180 0 0 10000000 0 15 16
181 0 0 10000000 0 29 1
182 0 0 10000000 0 7 32
183 0 0 10000000 0 5 24
184 0 0 10000000 0 16 16
185 0 0 10000000 0 8 15
186 0 0 10000000 0 30 3
187 0 0 10000000 0 27 27
188 0 0 10000000 0 17 29
189 0 0 10000000 0 26 2
190 0 0 10000000 0 34 24
191 0 0 10000000 0 13 5
192 0 0 10000000 0 38 20
193 0 0 10000000 0 21 9
194 0 0 10000000 0 36 28
195 0 0 10000000 0 31 18
196 0 0 10000000 0 10 12
197 0 0 10000000 0 14 19
198 0 0 10000000 0 37 9
199 0 0 10000000 0 11 10
200 0 0 10000000 0 12 17
201 0 0 10000000 0 34 30
DEPOT_SECTION
1 
-1
EOF
